1
100
100
78 12
78 93
90 94
97 83
65 54
92 77
94 93
65 72
75 59
67 71
59 53
97 73
97 75
53 78
87 76
89 86
80 53
52 97
84 10
44 11
75 93
13 84
76 54
59 97
32 97
85 68
89 62
92 44
100 8
68 72
62 81
77 52
79 82
75 37
99 12
28 82
70 68
70 63
96 53
94 7
73 66
89 51
54 57
15 66
88 76
79 3
75 73
50 56
64 98
60 63
57 100
99 24
3 31
15 91
51 89
57 53
52 75
30 81
7 39
29 45
64 81
56 69
25 2
61 97
87 100
95 77
4 83
55 61
72 79
95 98
94 60
62 87
68 70
7 86
96 57
80 74
27 82
80 72
10 77
59 73
47 92
65 78
86 87
50 90
78 64
13 96
73 69
52 57
21 2
21 23
72 63
67 91
76 51
94 13
33 78
93 87
92 63
73 64
5 90
81 95
